c description: Random 3-CNF over 15 variables and 15 clauses
c generator: CNFgen (0.9.0)
c copyright: (C) 2012-2020 Massimo Lauria <massimo.lauria@uniroma1.it>
c url: https://massimolauria.net/cnfgen
c
p cnf 15 15
4 -7 13 0
-2 -6 -14 0
-3 5 11 0
-3 -10 11 0
-1 3 14 0
1 -6 9 0
-1 -13 15 0
2 -5 6 0
12 13 -15 0
-1 -8 10 0
1 -9 -12 0
3 -5 9 0
7 -8 13 0
2 -4 -5 0
-2 -7 15 0